1254196
94,42,84,60,5,29,102,55,91,73,22,14,99,52,16,79,47,20,12,92,95,86,61,18,72,41,59,105,107,32,77,54,67,39,7,27,35,11,64,87,6,17,49,75,98,104,101,53,57,103,70,46,96,90,88,10,48,30,38,13,69,68,26,85,74,56,71,37,40,25,36,8,76,65,9,21,63,23,108,89,66,3,78,43,19,62,2,82,24,44,81,0,4,34,97,100,33,51,28,15,106,93,45,80,1,58,83,50,31
